7
0, 408, 905, 837, 935, 700, 951
408, 0, 788, 587, 658, 403, 548
905, 788, 0, 314, 372, 1151, 1034
837, 587, 314, 0, 108, 893, 726
935, 658, 372, 108, 0, 928, 712
700, 403, 1151, 893, 928, 0, 411
951, 548, 1034, 726, 712, 411, 0
